
Gurobi 10.0.3 (linux64, Python) logging started Sun Nov 24 13:25:08 2024


Gurobi 10.0.3 (linux64, Python) logging started Sun Nov 24 13:25:08 2024


Gurobi 10.0.3 (linux64, Python) logging started Sun Nov 24 13:25:08 2024


Gurobi 10.0.3 (linux64, Python) logging started Sun Nov 24 13:25:08 2024


Gurobi 10.0.3 (linux64, Python) logging started Sun Nov 24 13:25:08 2024


Gurobi 10.0.3 (linux64, Python) logging started Sun Nov 24 13:25:08 2024


Gurobi 10.0.3 (linux64, Python) logging started Sun Nov 24 13:25:09 2024


Gurobi 10.0.3 (linux64, Python) logging started Sun Nov 24 13:25:09 2024


Gurobi 10.0.3 (linux64, Python) logging started Sun Nov 24 13:25:09 2024


Gurobi 10.0.3 (linux64, Python) logging started Sun Nov 24 13:25:09 2024


Gurobi 10.0.3 (linux64, Python) logging started Sun Nov 24 13:25:09 2024


Gurobi 10.0.3 (linux64, Python) logging started Sun Nov 24 13:25:09 2024


Gurobi 10.0.3 (linux64, Python) logging started Sun Nov 24 13:25:09 2024


Gurobi 10.0.3 (linux64, Python) logging started Sun Nov 24 13:25:09 2024


Gurobi 10.0.3 (linux64, Python) logging started Sun Nov 24 13:25:09 2024


Gurobi 10.0.3 (linux64, Python) logging started Sun Nov 24 13:25:09 2024


Gurobi 10.0.3 (linux64, Python) logging started Sun Nov 24 13:25:09 2024


Gurobi 10.0.3 (linux64, Python) logging started Sun Nov 24 13:25:09 2024


Gurobi 10.0.3 (linux64, Python) logging started Sun Nov 24 13:25:09 2024


Gurobi 10.0.3 (linux64, Python) logging started Sun Nov 24 13:25:09 2024


Gurobi 10.0.3 (linux64, Python) logging started Sun Nov 24 13:25:09 2024


Gurobi 10.0.3 (linux64, Python) logging started Sun Nov 24 13:25:09 2024


Gurobi 10.0.3 (linux64, Python) logging started Sun Nov 24 13:25:09 2024


Gurobi 10.0.3 (linux64, Python) logging started Sun Nov 24 13:25:09 2024


Gurobi 10.0.3 (linux64, Python) logging started Sun Nov 24 13:25:09 2024


Gurobi 10.0.3 (linux64, Python) logging started Sun Nov 24 13:25:09 2024


Gurobi 10.0.3 (linux64, Python) logging started Sun Nov 24 13:25:10 2024


Gurobi 10.0.3 (linux64, Python) logging started Sun Nov 24 13:25:10 2024


Gurobi 10.0.3 (linux64, Python) logging started Sun Nov 24 13:25:10 2024


Gurobi 10.0.3 (linux64, Python) logging started Sun Nov 24 13:25:10 2024


Gurobi 10.0.3 (linux64, Python) logging started Sun Nov 24 13:25:10 2024


Gurobi 10.0.3 (linux64, Python) logging started Sun Nov 24 13:25:10 2024


Gurobi 10.0.3 (linux64, Python) logging started Sun Nov 24 13:25:10 2024


Gurobi 10.0.3 (linux64, Python) logging started Sun Nov 24 13:25:10 2024


Gurobi 10.0.3 (linux64, Python) logging started Sun Nov 24 13:25:10 2024


Gurobi 10.0.3 (linux64, Python) logging started Sun Nov 24 13:25:10 2024


Gurobi 10.0.3 (linux64, Python) logging started Sun Nov 24 13:25:10 2024


Gurobi 10.0.3 (linux64, Python) logging started Sun Nov 24 13:25:10 2024


Gurobi 10.0.3 (linux64, Python) logging started Sun Nov 24 13:25:10 2024


Gurobi 10.0.3 (linux64, Python) logging started Sun Nov 24 13:25:10 2024


Gurobi 10.0.3 (linux64, Python) logging started Sun Nov 24 13:25:10 2024


Gurobi 10.0.3 (linux64, Python) logging started Sun Nov 24 13:25:10 2024


Gurobi 10.0.3 (linux64, Python) logging started Sun Nov 24 13:25:10 2024


Gurobi 10.0.3 (linux64, Python) logging started Sun Nov 24 13:25:10 2024


Gurobi 10.0.3 (linux64, Python) logging started Sun Nov 24 13:25:11 2024


Gurobi 10.0.3 (linux64, Python) logging started Sun Nov 24 13:25:11 2024


Gurobi 10.0.3 (linux64, Python) logging started Sun Nov 24 13:25:11 2024


Gurobi 10.0.3 (linux64, Python) logging started Sun Nov 24 13:25:11 2024


Gurobi 10.0.3 (linux64, Python) logging started Sun Nov 24 13:25:11 2024


Gurobi 10.0.3 (linux64, Python) logging started Sun Nov 24 13:25:11 2024


Gurobi 10.0.3 (linux64, Python) logging started Sun Nov 24 13:25:11 2024


Gurobi 10.0.3 (linux64, Python) logging started Sun Nov 24 13:25:11 2024


Gurobi 10.0.3 (linux64, Python) logging started Sun Nov 24 13:25:11 2024


Gurobi 10.0.3 (linux64, Python) logging started Sun Nov 24 13:25:11 2024


Gurobi 10.0.3 (linux64, Python) logging started Sun Nov 24 13:25:11 2024


Gurobi 10.0.3 (linux64, Python) logging started Sun Nov 24 13:25:11 2024


Gurobi 10.0.3 (linux64, Python) logging started Sun Nov 24 13:25:11 2024


Gurobi 10.0.3 (linux64, Python) logging started Sun Nov 24 13:25:11 2024


Gurobi 10.0.3 (linux64, Python) logging started Sun Nov 24 13:25:11 2024


Gurobi 10.0.3 (linux64, Python) logging started Sun Nov 24 13:25:11 2024


Gurobi 10.0.3 (linux64, Python) logging started Sun Nov 24 13:25:11 2024


Gurobi 10.0.3 (linux64, Python) logging started Sun Nov 24 13:25:11 2024


Gurobi 10.0.3 (linux64, Python) logging started Sun Nov 24 13:25:11 2024


Gurobi 10.0.3 (linux64, Python) logging started Sun Nov 24 13:25:11 2024


Gurobi 10.0.3 (linux64, Python) logging started Sun Nov 24 13:25:12 2024


Gurobi 10.0.3 (linux64, Python) logging started Sun Nov 24 13:25:12 2024


Gurobi 10.0.3 (linux64, Python) logging started Sun Nov 24 13:25:12 2024


Gurobi 10.0.3 (linux64, Python) logging started Sun Nov 24 13:25:12 2024


Gurobi 10.0.3 (linux64, Python) logging started Sun Nov 24 13:25:12 2024


Gurobi 10.0.3 (linux64, Python) logging started Sun Nov 24 13:25:12 2024


Gurobi 10.0.3 (linux64, Python) logging started Sun Nov 24 13:25:12 2024


Gurobi 10.0.3 (linux64, Python) logging started Sun Nov 24 13:25:12 2024


Gurobi 10.0.3 (linux64, Python) logging started Sun Nov 24 13:25:12 2024


Gurobi 10.0.3 (linux64, Python) logging started Sun Nov 24 13:25:12 2024


Gurobi 10.0.3 (linux64, Python) logging started Sun Nov 24 13:25:12 2024


Gurobi 10.0.3 (linux64, Python) logging started Sun Nov 24 13:25:12 2024


Gurobi 10.0.3 (linux64, Python) logging started Sun Nov 24 13:25:12 2024


Gurobi 10.0.3 (linux64, Python) logging started Sun Nov 24 13:25:12 2024


Gurobi 10.0.3 (linux64, Python) logging started Sun Nov 24 13:25:12 2024


Gurobi 10.0.3 (linux64, Python) logging started Sun Nov 24 13:25:12 2024


Gurobi 10.0.3 (linux64, Python) logging started Sun Nov 24 13:25:13 2024


Gurobi 10.0.3 (linux64, Python) logging started Sun Nov 24 13:25:13 2024


Gurobi 10.0.3 (linux64, Python) logging started Sun Nov 24 13:25:13 2024


Gurobi 10.0.3 (linux64, Python) logging started Sun Nov 24 13:25:13 2024


Gurobi 10.0.3 (linux64, Python) logging started Sun Nov 24 13:25:13 2024


Gurobi 10.0.3 (linux64, Python) logging started Sun Nov 24 13:25:13 2024


Gurobi 10.0.3 (linux64, Python) logging started Sun Nov 24 13:25:13 2024


Gurobi 10.0.3 (linux64, Python) logging started Sun Nov 24 13:25:13 2024


Gurobi 10.0.3 (linux64, Python) logging started Sun Nov 24 13:25:13 2024


Gurobi 10.0.3 (linux64, Python) logging started Sun Nov 24 13:25:13 2024


Gurobi 10.0.3 (linux64, Python) logging started Sun Nov 24 13:25:13 2024


Gurobi 10.0.3 (linux64, Python) logging started Sun Nov 24 13:25:13 2024


Gurobi 10.0.3 (linux64, Python) logging started Sun Nov 24 13:25:13 2024


Gurobi 10.0.3 (linux64, Python) logging started Sun Nov 24 13:25:13 2024


Gurobi 10.0.3 (linux64, Python) logging started Sun Nov 24 13:25:13 2024


Gurobi 10.0.3 (linux64, Python) logging started Sun Nov 24 13:25:13 2024


Gurobi 10.0.3 (linux64, Python) logging started Sun Nov 24 13:25:13 2024


Gurobi 10.0.3 (linux64, Python) logging started Sun Nov 24 13:25:13 2024


Gurobi 10.0.3 (linux64, Python) logging started Sun Nov 24 13:25:14 2024


Gurobi 10.0.3 (linux64, Python) logging started Sun Nov 24 13:25:14 2024


Gurobi 10.0.3 (linux64, Python) logging started Sun Nov 24 13:25:14 2024


Gurobi 10.0.3 (linux64, Python) logging started Sun Nov 24 13:25:14 2024


Gurobi 10.0.3 (linux64, Python) logging started Sun Nov 24 13:25:14 2024


Gurobi 10.0.3 (linux64, Python) logging started Sun Nov 24 13:25:14 2024


Gurobi 10.0.3 (linux64, Python) logging started Sun Nov 24 13:25:14 2024


Gurobi 10.0.3 (linux64, Python) logging started Sun Nov 24 13:25:14 2024


Gurobi 10.0.3 (linux64, Python) logging started Sun Nov 24 13:25:14 2024


Gurobi 10.0.3 (linux64, Python) logging started Sun Nov 24 13:25:14 2024


Gurobi 10.0.3 (linux64, Python) logging started Sun Nov 24 13:25:14 2024


Gurobi 10.0.3 (linux64, Python) logging started Sun Nov 24 13:25:14 2024


Gurobi 10.0.3 (linux64, Python) logging started Sun Nov 24 13:25:14 2024


Gurobi 10.0.3 (linux64, Python) logging started Sun Nov 24 13:25:14 2024


Gurobi 10.0.3 (linux64, Python) logging started Sun Nov 24 13:25:14 2024


Gurobi 10.0.3 (linux64, Python) logging started Sun Nov 24 13:25:14 2024


Gurobi 10.0.3 (linux64, Python) logging started Sun Nov 24 13:25:14 2024


Gurobi 10.0.3 (linux64, Python) logging started Sun Nov 24 13:25:14 2024


Gurobi 10.0.3 (linux64, Python) logging started Sun Nov 24 13:25:15 2024


Gurobi 10.0.3 (linux64, Python) logging started Sun Nov 24 13:25:15 2024


Gurobi 10.0.3 (linux64, Python) logging started Sun Nov 24 13:25:15 2024


Gurobi 10.0.3 (linux64, Python) logging started Sun Nov 24 13:25:15 2024


Gurobi 10.0.3 (linux64, Python) logging started Sun Nov 24 13:25:15 2024


Gurobi 10.0.3 (linux64, Python) logging started Sun Nov 24 13:25:15 2024


Gurobi 10.0.3 (linux64, Python) logging started Sun Nov 24 13:25:15 2024


Gurobi 10.0.3 (linux64, Python) logging started Sun Nov 24 13:25:15 2024


Gurobi 10.0.3 (linux64, Python) logging started Sun Nov 24 13:25:15 2024


Gurobi 10.0.3 (linux64, Python) logging started Sun Nov 24 13:25:16 2024


Gurobi 10.0.3 (linux64, Python) logging started Sun Nov 24 13:25:16 2024


Gurobi 10.0.3 (linux64, Python) logging started Sun Nov 24 13:25:16 2024


Gurobi 10.0.3 (linux64, Python) logging started Sun Nov 24 13:25:16 2024


Gurobi 10.0.3 (linux64, Python) logging started Sun Nov 24 13:25:16 2024


Gurobi 10.0.3 (linux64, Python) logging started Sun Nov 24 13:25:16 2024


Gurobi 10.0.3 (linux64, Python) logging started Sun Nov 24 13:25:16 2024


Gurobi 10.0.3 (linux64, Python) logging started Sun Nov 24 13:25:16 2024


Gurobi 10.0.3 (linux64, Python) logging started Sun Nov 24 13:25:16 2024


Gurobi 10.0.3 (linux64, Python) logging started Sun Nov 24 13:25:16 2024


Gurobi 10.0.3 (linux64, Python) logging started Sun Nov 24 13:25:16 2024


Gurobi 10.0.3 (linux64, Python) logging started Sun Nov 24 13:25:16 2024


Gurobi 10.0.3 (linux64, Python) logging started Sun Nov 24 13:25:16 2024


Gurobi 10.0.3 (linux64, Python) logging started Sun Nov 24 13:25:16 2024


Gurobi 10.0.3 (linux64, Python) logging started Sun Nov 24 13:25:16 2024


Gurobi 10.0.3 (linux64, Python) logging started Sun Nov 24 13:25:16 2024


Gurobi 10.0.3 (linux64, Python) logging started Sun Nov 24 13:25:16 2024


Gurobi 10.0.3 (linux64, Python) logging started Sun Nov 24 13:25:16 2024


Gurobi 10.0.3 (linux64, Python) logging started Sun Nov 24 13:25:16 2024


Gurobi 10.0.3 (linux64, Python) logging started Sun Nov 24 13:25:16 2024


Gurobi 10.0.3 (linux64, Python) logging started Sun Nov 24 13:25:16 2024


Gurobi 10.0.3 (linux64, Python) logging started Sun Nov 24 13:25:16 2024


Gurobi 10.0.3 (linux64, Python) logging started Sun Nov 24 13:25:16 2024


Gurobi 10.0.3 (linux64, Python) logging started Sun Nov 24 13:25:16 2024


Gurobi 10.0.3 (linux64, Python) logging started Sun Nov 24 13:25:16 2024


Gurobi 10.0.3 (linux64, Python) logging started Sun Nov 24 13:25:16 2024


Gurobi 10.0.3 (linux64, Python) logging started Sun Nov 24 13:25:16 2024


Gurobi 10.0.3 (linux64, Python) logging started Sun Nov 24 13:25:16 2024


Gurobi 10.0.3 (linux64, Python) logging started Sun Nov 24 13:25:16 2024


Gurobi 10.0.3 (linux64, Python) logging started Sun Nov 24 13:25:16 2024


Gurobi 10.0.3 (linux64, Python) logging started Sun Nov 24 13:25:16 2024


Gurobi 10.0.3 (linux64, Python) logging started Sun Nov 24 13:25:16 2024


Gurobi 10.0.3 (linux64, Python) logging started Sun Nov 24 13:25:16 2024


Gurobi 10.0.3 (linux64, Python) logging started Sun Nov 24 13:25:16 2024


Gurobi 10.0.3 (linux64, Python) logging started Sun Nov 24 13:25:16 2024


Gurobi 10.0.3 (linux64, Python) logging started Sun Nov 24 13:25:16 2024


Gurobi 10.0.3 (linux64, Python) logging started Sun Nov 24 13:25:16 2024


Gurobi 10.0.3 (linux64, Python) logging started Sun Nov 24 13:25:16 2024


Gurobi 10.0.3 (linux64, Python) logging started Sun Nov 24 13:25:16 2024


Gurobi 10.0.3 (linux64, Python) logging started Sun Nov 24 13:25:16 2024


Gurobi 10.0.3 (linux64, Python) logging started Sun Nov 24 13:25:16 2024


Gurobi 10.0.3 (linux64, Python) logging started Sun Nov 24 13:25:16 2024


Gurobi 10.0.3 (linux64, Python) logging started Sun Nov 24 13:25:16 2024


Gurobi 10.0.3 (linux64, Python) logging started Sun Nov 24 13:25:16 2024


Gurobi 10.0.3 (linux64, Python) logging started Sun Nov 24 13:25:16 2024


Gurobi 10.0.3 (linux64, Python) logging started Sun Nov 24 13:25:16 2024


Gurobi 10.0.3 (linux64, Python) logging started Sun Nov 24 13:25:16 2024


Gurobi 10.0.3 (linux64, Python) logging started Sun Nov 24 13:25:16 2024


Gurobi 10.0.3 (linux64, Python) logging started Sun Nov 24 13:25:16 2024


Gurobi 10.0.3 (linux64, Python) logging started Sun Nov 24 13:25:17 2024


Gurobi 10.0.3 (linux64, Python) logging started Sun Nov 24 13:25:17 2024


Gurobi 10.0.3 (linux64, Python) logging started Sun Nov 24 13:25:17 2024


Gurobi 10.0.3 (linux64, Python) logging started Sun Nov 24 13:25:17 2024


Gurobi 10.0.3 (linux64, Python) logging started Sun Nov 24 13:25:17 2024


Gurobi 10.0.3 (linux64, Python) logging started Sun Nov 24 13:25:17 2024


Gurobi 10.0.3 (linux64, Python) logging started Sun Nov 24 13:25:17 2024


Gurobi 10.0.3 (linux64, Python) logging started Sun Nov 24 13:25:17 2024


Gurobi 10.0.3 (linux64, Python) logging started Sun Nov 24 13:25:17 2024


Gurobi 10.0.3 (linux64, Python) logging started Sun Nov 24 13:25:17 2024

